<?xml version = "1.0" standalone="yes"?>
<!-- This file has been generated by DOcplex version 2.23.222  -->
<CPLEXSolution version="1.0">
 <header
   problemName="CVRP"
   objectiveValue="8085.79"
  />
 <variables>
  <variable name="x_0_1" index="0" value="1.00000"/>
  <variable name="x_0_3" index="2" value="1.00000"/>
  <variable name="x_0_4" index="3" value="1.00000"/>
  <variable name="x_0_5" index="4" value="1.00000"/>
  <variable name="x_0_6" index="5" value="1.00000"/>
  <variable name="x_0_7" index="6" value="1.00000"/>
  <variable name="x_0_8" index="7" value="1.00000"/>
  <variable name="x_0_9" index="8" value="1.00000"/>
  <variable name="x_0_12" index="11" value="1.00000"/>
  <variable name="x_1_0" index="13" value="1.00000"/>
  <variable name="x_2_0" index="26" value="1.00000"/>
  <variable name="x_3_0" index="39" value="1.00000"/>
  <variable name="x_4_10" index="61" value="1.00000"/>
  <variable name="x_5_0" index="65" value="1.00000"/>
  <variable name="x_6_0" index="78" value="1.00000"/>
  <variable name="x_7_0" index="91" value="1.00000"/>
  <variable name="x_8_13" index="116" value="1.00000"/>
  <variable name="x_9_0" index="117" value="1.00000"/>
  <variable name="x_10_11" index="140" value="1.00000"/>
  <variable name="x_11_0" index="143" value="1.00000"/>
  <variable name="x_12_2" index="158" value="1.00000"/>
  <variable name="x_13_0" index="169" value="1.00000"/>
  <variable name="u_1" index="182" value="37.00000"/>
  <variable name="u_2" index="183" value="27.00000"/>
  <variable name="u_3" index="184" value="42.00000"/>
  <variable name="u_4" index="185" value="10.00000"/>
  <variable name="u_5" index="186" value="48.00000"/>
  <variable name="u_6" index="187" value="42.00000"/>
  <variable name="u_7" index="188" value="44.00000"/>
  <variable name="u_8" index="189" value="19.00000"/>
  <variable name="u_9" index="190" value="32.00000"/>
  <variable name="u_10" index="191" value="27.00000"/>
  <variable name="u_11" index="192" value="34.00000"/>
  <variable name="u_12" index="193" value="9.00000"/>
  <variable name="u_13" index="194" value="42.00000"/>
 </variables>
</CPLEXSolution>
